(set-logic QF_UF)
(declare-fun A0 () Bool)
(declare-fun A1 () Bool)
(declare-fun A2 () Bool)
(declare-fun A3 () Bool)
(declare-fun A4 () Bool)
(declare-fun A5 () Bool)
(declare-fun A6 () Bool)
(declare-fun A7 () Bool)
(declare-fun A8 () Bool)
(declare-fun A9 () Bool)
(declare-fun A10 () Bool)
(declare-fun A11 () Bool)
(declare-fun A12 () Bool)
(declare-fun A13 () Bool)
(declare-fun A14 () Bool)
(declare-fun A15 () Bool)
(declare-fun A16 () Bool)
(declare-fun A17 () Bool)
(declare-fun A18 () Bool)
(declare-fun A19 () Bool)
(declare-fun A20 () Bool)
(declare-fun A21 () Bool)
(declare-fun A22 () Bool)
(declare-fun A23 () Bool)
(declare-fun A24 () Bool)
(assert (let ((.def_0 (not A17))) (let ((.def_1 (not A12))) (let ((.def_2 (or .def_1 .def_0))) (let ((.def_3 (not .def_2))) (let ((.def_4 (not A10))) (let ((.def_5 (or .def_0 .def_4))) (let ((.def_6 (or .def_5 .def_3))) (let ((.def_7 (not .def_6))) (let ((.def_8 (not A20))) (let ((.def_9 (and .def_8 .def_4))) (let ((.def_10 (not .def_9))) (let ((.def_11 (not A1))) (let ((.def_12 (not A19))) (let ((.def_13 (and .def_12 .def_11))) (let ((.def_14 (not .def_13))) (let ((.def_15 (or .def_14 .def_10))) (let ((.def_16 (and .def_15 .def_7))) (let ((.def_17 (not .def_16))) (let ((.def_18 (not A3))) (let ((.def_19 (not A13))) (let ((.def_20 (or .def_19 .def_18))) (let ((.def_21 (not .def_20))) (let ((.def_22 (not A18))) (let ((.def_23 (and .def_22 .def_0))) (let ((.def_24 (or .def_23 .def_21))) (let ((.def_25 (not .def_24))) (let ((.def_26 (not A11))) (let ((.def_27 (= .def_26 A15))) (let ((.def_28 (not .def_27))) (let ((.def_29 (or A5 A23))) (let ((.def_30 (not .def_29))) (let ((.def_31 (and .def_30 .def_28))) (let ((.def_32 (and .def_31 .def_25))) (let ((.def_33 (or .def_32 .def_17))) (let ((.def_34 (not .def_33))) (let ((.def_35 (not A9))) (let ((.def_36 (or .def_35 A5))) (let ((.def_37 (not .def_36))) (let ((.def_38 (and A2 A9))) (let ((.def_39 (not .def_38))) (let ((.def_40 (= .def_39 .def_37))) (let ((.def_41 (and .def_11 A24))) (let ((.def_42 (not A0))) (let ((.def_43 (= A13 .def_42))) (let ((.def_44 (and .def_43 .def_41))) (let ((.def_45 (or .def_44 .def_40))) (let ((.def_46 (not .def_45))) (let ((.def_47 (or A23 .def_11))) (let ((.def_48 (not .def_47))) (let ((.def_49 (not A5))) (let ((.def_50 (= A24 .def_49))) (let ((.def_51 (not .def_50))) (let ((.def_52 (or .def_51 .def_48))) (let ((.def_53 (not .def_52))) (let ((.def_54 (and A2 A4))) (let ((.def_55 (not A2))) (let ((.def_56 (and .def_55 A19))) (let ((.def_57 (not .def_56))) (let ((.def_58 (and .def_57 .def_54))) (let ((.def_59 (not .def_58))) (let ((.def_60 (and .def_59 .def_53))) (let ((.def_61 (and .def_60 .def_46))) (let ((.def_62 (not .def_61))) (let ((.def_63 (or .def_62 .def_34))) (let ((.def_64 (or A9 A3))) (let ((.def_65 (not A16))) (let ((.def_66 (or .def_65 A5))) (let ((.def_67 (not .def_66))) (let ((.def_68 (and .def_67 .def_64))) (let ((.def_69 (not A15))) (let ((.def_70 (or .def_69 A2))) (let ((.def_71 (not .def_70))) (let ((.def_72 (or A8 A16))) (let ((.def_73 (not .def_72))) (let ((.def_74 (or .def_73 .def_71))) (let ((.def_75 (and .def_74 .def_68))) (let ((.def_76 (not .def_75))) (let ((.def_77 (not A22))) (let ((.def_78 (= .def_77 A19))) (let ((.def_79 (or .def_12 A14))) (let ((.def_80 (not .def_79))) (let ((.def_81 (or .def_80 .def_78))) (let ((.def_82 (and A8 A0))) (let ((.def_83 (not .def_82))) (let ((.def_84 (= .def_12 A9))) (let ((.def_85 (and .def_84 .def_83))) (let ((.def_86 (and .def_85 .def_81))) (let ((.def_87 (or .def_86 .def_76))) (let ((.def_88 (and .def_69 A12))) (let ((.def_89 (not .def_88))) (let ((.def_90 (not A23))) (let ((.def_91 (and .def_90 A20))) (let ((.def_92 (or .def_91 .def_89))) (let ((.def_93 (not .def_92))) (let ((.def_94 (and A0 A9))) (let ((.def_95 (not .def_94))) (let ((.def_96 (or .def_0 .def_35))) (let ((.def_97 (not .def_96))) (let ((.def_98 (or .def_97 .def_95))) (let ((.def_99 (and .def_98 .def_93))) (let ((.def_100 (not .def_99))) (let ((.def_101 (not A21))) (let ((.def_102 (and A18 .def_101))) (let ((.def_103 (not .def_102))) (let ((.def_104 (and A16 .def_1))) (let ((.def_105 (not .def_104))) (let ((.def_106 (and .def_105 .def_103))) (let ((.def_107 (not .def_106))) (let ((.def_108 (and .def_12 A14))) (let ((.def_109 (and A15 A0))) (let ((.def_110 (not .def_109))) (let ((.def_111 (and .def_110 .def_108))) (let ((.def_112 (or .def_111 .def_107))) (let ((.def_113 (not .def_112))) (let ((.def_114 (or .def_113 .def_100))) (let ((.def_115 (not .def_114))) (let ((.def_116 (= .def_115 .def_87))) (let ((.def_117 (and .def_116 .def_63))) (let ((.def_118 (not .def_117))) (let ((.def_119 (and .def_69 .def_4))) (let ((.def_120 (not .def_119))) (let ((.def_121 (not A4))) (let ((.def_122 (or .def_4 .def_121))) (let ((.def_123 (and .def_122 .def_120))) (let ((.def_124 (not .def_123))) (let ((.def_125 (not A14))) (let ((.def_126 (or .def_125 A9))) (let ((.def_127 (not .def_126))) (let ((.def_128 (and .def_18 A2))) (let ((.def_129 (not .def_128))) (let ((.def_130 (and .def_129 .def_127))) (let ((.def_131 (and .def_130 .def_124))) (let ((.def_132 (or .def_77 A15))) (let ((.def_133 (not A24))) (let ((.def_134 (and A4 .def_133))) (let ((.def_135 (not .def_134))) (let ((.def_136 (or .def_135 .def_132))) (let ((.def_137 (and A19 A9))) (let ((.def_138 (not .def_137))) (let ((.def_139 (or A0 .def_0))) (let ((.def_140 (not .def_139))) (let ((.def_141 (and .def_140 .def_138))) (let ((.def_142 (not .def_141))) (let ((.def_143 (= .def_142 .def_136))) (let ((.def_144 (not .def_143))) (let ((.def_145 (and .def_144 .def_131))) (let ((.def_146 (or A10 .def_4))) (let ((.def_147 (and .def_121 A15))) (let ((.def_148 (not .def_147))) (let ((.def_149 (or .def_148 .def_146))) (let ((.def_150 (not .def_149))) (let ((.def_151 (or .def_1 .def_4))) (let ((.def_152 (and A15 .def_125))) (let ((.def_153 (or .def_152 .def_151))) (let ((.def_154 (or .def_153 .def_150))) (let ((.def_155 (not .def_154))) (let ((.def_156 (= A1 A16))) (let ((.def_157 (not .def_156))) (let ((.def_158 (and A19 A6))) (let ((.def_159 (or .def_158 .def_157))) (let ((.def_160 (not A7))) (let ((.def_161 (or A9 .def_160))) (let ((.def_162 (= .def_35 .def_121))) (let ((.def_163 (and .def_162 .def_161))) (let ((.def_164 (or .def_163 .def_159))) (let ((.def_165 (not .def_164))) (let ((.def_166 (or .def_165 .def_155))) (let ((.def_167 (not .def_166))) (let ((.def_168 (or .def_167 .def_145))) (let ((.def_169 (not .def_168))) (let ((.def_170 (or .def_12 A19))) (let ((.def_171 (not .def_170))) (let ((.def_172 (and A19 A11))) (let ((.def_173 (not .def_172))) (let ((.def_174 (and .def_173 .def_171))) (let ((.def_175 (not .def_174))) (let ((.def_176 (or A17 .def_8))) (let ((.def_177 (not .def_176))) (let ((.def_178 (or .def_125 A5))) (let ((.def_179 (or .def_178 .def_177))) (let ((.def_180 (or .def_179 .def_175))) (let ((.def_181 (not .def_180))) (let ((.def_182 (or A4 .def_22))) (let ((.def_183 (or A12 A7))) (let ((.def_184 (or .def_183 .def_182))) (let ((.def_185 (not .def_184))) (let ((.def_186 (or A5 .def_12))) (let ((.def_187 (not .def_186))) (let ((.def_188 (and A21 A22))) (let ((.def_189 (and .def_188 .def_187))) (let ((.def_190 (= .def_189 .def_185))) (let ((.def_191 (not .def_190))) (let ((.def_192 (and .def_191 .def_181))) (let ((.def_193 (or .def_55 A23))) (let ((.def_194 (not .def_193))) (let ((.def_195 (and .def_26 A22))) (let ((.def_196 (= .def_195 .def_194))) (let ((.def_197 (= A4 .def_35))) (let ((.def_198 (not .def_197))) (let ((.def_199 (or A15 A21))) (let ((.def_200 (not .def_199))) (let ((.def_201 (and .def_200 .def_198))) (let ((.def_202 (not .def_201))) (let ((.def_203 (or .def_202 .def_196))) (let ((.def_204 (or .def_26 A3))) (let ((.def_205 (not .def_204))) (let ((.def_206 (or .def_49 A23))) (let ((.def_207 (= .def_206 .def_205))) (let ((.def_208 (not .def_207))) (let ((.def_209 (not A8))) (let ((.def_210 (or .def_209 A19))) (let ((.def_211 (and A7 .def_49))) (let ((.def_212 (not .def_211))) (let ((.def_213 (and .def_212 .def_210))) (let ((.def_214 (or .def_213 .def_208))) (let ((.def_215 (= .def_214 .def_203))) (let ((.def_216 (not .def_215))) (let ((.def_217 (and .def_216 .def_192))) (let ((.def_218 (not .def_217))) (let ((.def_219 (= .def_218 .def_169))) (let ((.def_220 (or .def_219 .def_118))) (let ((.def_221 (and A16 A4))) (let ((.def_222 (not .def_221))) (let ((.def_223 (and .def_101 .def_209))) (let ((.def_224 (and .def_223 .def_222))) (let ((.def_225 (and .def_4 A13))) (let ((.def_226 (not .def_225))) (let ((.def_227 (or A16 A19))) (let ((.def_228 (not .def_227))) (let ((.def_229 (or .def_228 .def_226))) (let ((.def_230 (not .def_229))) (let ((.def_231 (or .def_230 .def_224))) (let ((.def_232 (not .def_231))) (let ((.def_233 (or .def_160 A18))) (let ((.def_234 (or .def_8 .def_125))) (let ((.def_235 (not .def_234))) (let ((.def_236 (or .def_235 .def_233))) (let ((.def_237 (not .def_236))) (let ((.def_238 (or A3 A21))) (let ((.def_239 (= A0 .def_65))) (let ((.def_240 (not .def_239))) (let ((.def_241 (and .def_240 .def_238))) (let ((.def_242 (or .def_241 .def_237))) (let ((.def_243 (not .def_242))) (let ((.def_244 (and .def_243 .def_232))) (let ((.def_245 (or A13 .def_4))) (let ((.def_246 (not .def_245))) (let ((.def_247 (and .def_121 .def_125))) (let ((.def_248 (not .def_247))) (let ((.def_249 (or .def_248 .def_246))) (let ((.def_250 (not .def_249))) (let ((.def_251 (or .def_55 A2))) (let ((.def_252 (not .def_251))) (let ((.def_253 (or .def_0 .def_65))) (let ((.def_254 (not .def_253))) (let ((.def_255 (and .def_254 .def_252))) (let ((.def_256 (not .def_255))) (let ((.def_257 (and .def_256 .def_250))) (let ((.def_258 (not .def_257))) (let ((.def_259 (and .def_209 A11))) (let ((.def_260 (not .def_259))) (let ((.def_261 (or .def_65 A10))) (let ((.def_262 (not .def_261))) (let ((.def_263 (or .def_262 .def_260))) (let ((.def_264 (= .def_42 .def_65))) (let ((.def_265 (not .def_264))) (let ((.def_266 (and A7 A18))) (let ((.def_267 (not .def_266))) (let ((.def_268 (= .def_267 .def_265))) (let ((.def_269 (and .def_268 .def_263))) (let ((.def_270 (or .def_269 .def_258))) (let ((.def_271 (and .def_270 .def_244))) (let ((.def_272 (not .def_271))) (let ((.def_273 (or .def_69 A15))) (let ((.def_274 (not .def_273))) (let ((.def_275 (or .def_22 .def_209))) (let ((.def_276 (or .def_275 .def_274))) (let ((.def_277 (or .def_12 A16))) (let ((.def_278 (or .def_12 A0))) (let ((.def_279 (not .def_278))) (let ((.def_280 (and .def_279 .def_277))) (let ((.def_281 (and .def_280 .def_276))) (let ((.def_282 (or .def_69 .def_19))) (let ((.def_283 (or A1 A1))) (let ((.def_284 (not .def_283))) (let ((.def_285 (or .def_284 .def_282))) (let ((.def_286 (or .def_125 .def_101))) (let ((.def_287 (or A13 A22))) (let ((.def_288 (= .def_287 .def_286))) (let ((.def_289 (and .def_288 .def_285))) (let ((.def_290 (not .def_289))) (let ((.def_291 (and .def_290 .def_281))) (let ((.def_292 (not .def_291))) (let ((.def_293 (and .def_160 .def_101))) (let ((.def_294 (not .def_293))) (let ((.def_295 (and .def_19 .def_133))) (let ((.def_296 (or .def_295 .def_294))) (let ((.def_297 (not .def_296))) (let ((.def_298 (or .def_125 A2))) (let ((.def_299 (not .def_298))) (let ((.def_300 (and .def_1 A1))) (let ((.def_301 (not .def_300))) (let ((.def_302 (or .def_301 .def_299))) (let ((.def_303 (and .def_302 .def_297))) (let ((.def_304 (= .def_49 .def_77))) (let ((.def_305 (or .def_69 .def_133))) (let ((.def_306 (not .def_305))) (let ((.def_307 (and .def_306 .def_304))) (let ((.def_308 (and A5 .def_133))) (let ((.def_309 (not .def_308))) (let ((.def_310 (and A18 A19))) (let ((.def_311 (= .def_310 .def_309))) (let ((.def_312 (not .def_311))) (let ((.def_313 (and .def_312 .def_307))) (let ((.def_314 (not .def_313))) (let ((.def_315 (or .def_314 .def_303))) (let ((.def_316 (not .def_315))) (let ((.def_317 (or .def_316 .def_292))) (let ((.def_318 (and .def_317 .def_272))) (let ((.def_319 (not .def_318))) (let ((.def_320 (or A3 A2))) (let ((.def_321 (= .def_206 .def_320))) (let ((.def_322 (= .def_65 A10))) (let ((.def_323 (not .def_322))) (let ((.def_324 (= A23 .def_77))) (let ((.def_325 (or .def_324 .def_323))) (let ((.def_326 (not .def_325))) (let ((.def_327 (or .def_326 .def_321))) (let ((.def_328 (not .def_327))) (let ((.def_329 (= .def_101 A8))) (let ((.def_330 (= A18 .def_55))) (let ((.def_331 (= .def_330 .def_329))) (let ((.def_332 (not .def_331))) (let ((.def_333 (= .def_65 .def_19))) (let ((.def_334 (or A7 A15))) (let ((.def_335 (and .def_334 .def_333))) (let ((.def_336 (not .def_335))) (let ((.def_337 (and .def_336 .def_332))) (let ((.def_338 (or .def_337 .def_328))) (let ((.def_339 (not .def_338))) (let ((.def_340 (and A8 .def_22))) (let ((.def_341 (= A6 A24))) (let ((.def_342 (and .def_341 .def_340))) (let ((.def_343 (not .def_342))) (let ((.def_344 (and A19 A17))) (let ((.def_345 (not .def_344))) (let ((.def_346 (= .def_8 .def_101))) (let ((.def_347 (or .def_346 .def_345))) (let ((.def_348 (and .def_347 .def_343))) (let ((.def_349 (not .def_348))) (let ((.def_350 (or .def_22 A15))) (let ((.def_351 (or A13 A23))) (let ((.def_352 (not .def_351))) (let ((.def_353 (and .def_352 .def_350))) (let ((.def_354 (= A10 .def_90))) (let ((.def_355 (and .def_18 .def_49))) (let ((.def_356 (or .def_355 .def_354))) (let ((.def_357 (or .def_356 .def_353))) (let ((.def_358 (= .def_357 .def_349))) (let ((.def_359 (or .def_358 .def_339))) (let ((.def_360 (or A17 A19))) (let ((.def_361 (not .def_360))) (let ((.def_362 (or .def_19 A4))) (let ((.def_363 (and .def_362 .def_361))) (let ((.def_364 (and A0 .def_160))) (let ((.def_365 (= .def_12 A21))) (let ((.def_366 (or .def_365 .def_364))) (let ((.def_367 (not .def_366))) (let ((.def_368 (or .def_367 .def_363))) (let ((.def_369 (not .def_368))) (let ((.def_370 (and A3 .def_4))) (let ((.def_371 (not .def_370))) (let ((.def_372 (= .def_35 A14))) (let ((.def_373 (or .def_372 .def_371))) (let ((.def_374 (and A1 .def_42))) (let ((.def_375 (or .def_125 A22))) (let ((.def_376 (not .def_375))) (let ((.def_377 (or .def_376 .def_374))) (let ((.def_378 (not .def_377))) (let ((.def_379 (or .def_378 .def_373))) (let ((.def_380 (or .def_379 .def_369))) (let ((.def_381 (and .def_26 .def_160))) (let ((.def_382 (or .def_49 A17))) (let ((.def_383 (or .def_382 .def_381))) (let ((.def_384 (not .def_383))) (let ((.def_385 (or .def_121 .def_26))) (let ((.def_386 (or A14 .def_35))) (let ((.def_387 (or .def_386 .def_385))) (let ((.def_388 (not .def_387))) (let ((.def_389 (and .def_388 .def_384))) (let ((.def_390 (or A1 A3))) (let ((.def_391 (not A6))) (let ((.def_392 (and .def_391 A16))) (let ((.def_393 (not .def_392))) (let ((.def_394 (and .def_393 .def_390))) (let ((.def_395 (not .def_394))) (let ((.def_396 (and .def_11 A11))) (let ((.def_397 (and A5 A7))) (let ((.def_398 (or .def_397 .def_396))) (let ((.def_399 (not .def_398))) (let ((.def_400 (and .def_399 .def_395))) (let ((.def_401 (or .def_400 .def_389))) (let ((.def_402 (and .def_401 .def_380))) (let ((.def_403 (not .def_402))) (let ((.def_404 (and .def_403 .def_359))) (let ((.def_405 (or .def_404 .def_319))) (let ((.def_406 (or .def_405 .def_220))) .def_406))))))))))))))))))))))))))))))))))))))))))))))))))))))))))))))))))))))))))))))))))))))))))))))))))))))))))))))))))))))))))))))))))))))))))))))))))))))))))))))))))))))))))))))))))))))))))))))))))))))))))))))))))))))))))))))))))))))))))))))))))))))))))))))))))))))))))))))))))))))))))))))))))))))))))))))))))))))))))))))))))))))))))))))))))))))))))))))))))))))))))))))))))))))))))))))))))))))))))))))))))))))))
(check-sat)
